experiments/knapsack_bounded/knapsack_bounded_15_7.mps.log
Algorithm statistics:
zero_reductions => 36025
max_basis_size => 723
queued_pairs => 0
built_pairs => 38635
reduced_pairs => 36847
eliminated_by_truncation => 114
removed_by_autoreduction => 0
eliminated_by_gcd => 222368
time => 0.026011819
memory => 0.020755626261234283
4ti2 results
4ti2 time => 0.050078345
